# Solution for model JobShopModel
# Objective value = 53
y[0,0,1] 1
y[0,1,1] 1
y[1,0,0] 1
y[1,1,1] 1
y[2,0,1] 1
y[2,1,0] 1
x[0,0,0,0] 0
x[0,0,0,1] 1
x[0,0,1,0] 0
x[0,0,1,1] 1
x[0,0,2,0] 1
x[0,0,2,1] 0
x[0,1,0,0] 0
x[0,1,0,1] 0
x[0,1,1,0] 0
x[0,1,1,1] 1
x[0,1,2,0] 1
x[0,1,2,1] 0
x[1,0,0,0] 0
x[1,0,0,1] 0
x[1,0,1,0] 0
x[1,0,1,1] 0
x[1,0,2,0] 0
x[1,0,2,1] 1
x[1,1,0,0] 0
x[1,1,0,1] 0
x[1,1,1,0] 0
x[1,1,1,1] 0
x[1,1,2,0] 1
x[1,1,2,1] 0
x[2,0,0,0] 0
x[2,0,0,1] 0
x[2,0,1,0] 0
x[2,0,1,1] 0
x[2,0,2,0] 0
x[2,0,2,1] 0
x[2,1,0,0] 0
x[2,1,0,1] 0
x[2,1,1,0] 0
x[2,1,1,1] 0
x[2,1,2,0] 0
x[2,1,2,1] 0
s[0,0,1] 44
s[0,1,1] 34
s[1,0,0] 13
s[1,1,1] 11
s[2,0,1] 4
s[2,1,0] 2
Z_FO 53
C49 1
C50 1
C51 1
